CoBHT
1.0
10.0 0.0 0.0
0.0 10.0 0.0
0.0 0.0 10.0
Co S C
1 2 2
Direct
0.0 0.0 0.0
0.1 0.1 0.1
0.2 0.2 0.2
0.3 0.3 0.3
0.4 0.4 0.4