CoBHT 
1.0
       29.3122463226         0.0000000000         0.0000000000
      -14.6649379359        25.3800587039         0.0000000000
        0.0000000000         0.0000000000        16.0488052368
   Co    S    C
   12   48   48
Cartesian
     0.219637194        11.856954060         1.003050327
    -7.112831337        24.546982656         1.003050327
    14.875759918        11.856954060         1.003050327
     7.543291387        24.546982656         1.003050327
    11.225550617         5.505226470         1.003050327
     3.893081649        18.195255822         1.003050327
    25.881672904         5.505226470         1.003050327
    18.549203936        18.195255822         1.003050327
     3.897469531         5.518627337         1.003050327
    -3.434999874        18.208657446         1.003050327
    18.553592256         5.518627337         1.003050327
    11.221122851        18.208657446         1.003050327
    -1.309332200        10.375393109         1.003050327
    -8.641800731        23.065421704         1.003050327
    13.346791398        10.375393109         1.003050327
     6.014322867        23.065421704         1.003050327
    -2.918912225         7.570934998         1.003050327
   -10.251381630        20.260965106         1.003050327
    11.737210391         7.570934998         1.003050327
     4.404740985        20.260965106         1.003050327
     1.754571421        10.382880561         1.003050327
    -5.577897547        23.072909913         1.003050327
    16.410694582        10.382880561         1.003050327
     9.078225614        23.072909913         1.003050327
    -1.383004435         4.919822916         1.003050327
    -8.715473184        17.609851890         1.003050327
    13.273118836         4.919822916         1.003050327
     5.940650086        17.609851890         1.003050327
     3.380409475         7.583789756         1.003050327
    -3.952059492        20.273819108         1.003050327
    18.036532637         7.583789756         1.003050327
    10.704063669        20.273819108         1.003050327
     1.853680549         4.927690829         1.003050327
    -5.478788200        17.617719803         1.003050327
    16.509802837         4.927690829         1.003050327
     9.177334088        17.617719803         1.003050327
    10.707690220         3.440152927         1.003050327
     3.375221470        16.130181900         1.003050327
    25.363813381         3.440152927         1.003050327
    18.031344631        16.130181900         1.003050327
     9.084711219         0.643409845         1.003050327
     1.752242415        13.333438913         1.003050327
    23.740834380         0.643409845         1.003050327
    16.408365576        13.333438913         1.003050327
     9.181291761         6.096772246         1.003050327
     1.848822793        18.786801598         1.003050327
    23.837415796         6.096772246         1.003050327
    16.504946828        18.786801598         1.003050327
     6.020825916         0.646925001         1.003050327
    -1.311643188        13.336954589         1.003050327
    20.676949077         0.646925001         1.003050327
    13.344479973        13.336954589         1.003050327
     5.944301967         6.104119767         1.003050327
    -1.388167001        18.794149119         1.003050327
    20.600426001         6.104119767         1.003050327
    13.267957033        18.794149119         1.003050327
     4.408322672         3.453350327         1.003050327
    -2.924146078        16.143379300         1.003050327
    19.064445833         3.453350327         1.003050327
    11.731977084        16.143379300         1.003050327
    -0.479980274         8.859810731         1.003050327
    -7.812449242        21.549840083         1.003050327
    14.176142450         8.859810731         1.003050327
     6.843673482        21.549840083         1.003050327
    -1.192466778         7.618294513         1.003050327
    -8.524935746        20.308323865         1.003050327
    13.463656820         7.618294513         1.003050327
     6.131187852        20.308323865         1.003050327
     0.934195288         8.863046545         1.003050327
    -6.398273680        21.553075896         1.003050327
    15.590318886         8.863046545         1.003050327
     8.257849918        21.553075896         1.003050327
    -0.483293681         6.394709150         1.003050327
    -7.815762649        19.084738502         1.003050327
    14.172829043         6.394709150         1.003050327
     6.840360075        19.084738502         1.003050327
     1.653178472         7.624766140         1.003050327
    -5.679290496        20.314795492         1.003050327
    16.309301197         7.624766140         1.003050327
     8.976832229        20.314795492         1.003050327
     0.948586312         6.398731604         1.003050327
    -6.383882656        19.088760956         1.003050327
    15.604709037         6.398731604         1.003050327
     8.272240069        19.088760956         1.003050327
     8.980479749         3.400001380         1.003050327
     1.648011218        16.090029975         1.003050327
    23.636602037         3.400001380         1.003050327
    16.304133506        16.090029975         1.003050327
     8.261968315         2.161962262         1.003050327
     0.929499347        14.851991614         1.003050327
    22.918092350         2.161962262         1.003050327
    15.585623382        14.851991614         1.003050327
     8.275775643         4.626074113         1.003050327
     0.943306457        17.316103844         1.003050327
    22.931899678         4.626074113         1.003050327
    15.599430492        17.316103844         1.003050327
     6.847725022         2.163840365         1.003050327
    -0.484744383        14.853870474         1.003050327
    21.503849057         2.163840365         1.003050327
    14.171379652        14.853870474         1.003050327
     6.843908268         4.629106838         1.003050327
    -0.488561137        17.319136946         1.003050327
    21.500031430         4.629106838         1.003050327
    14.167562025        17.319136946         1.003050327
     6.134859559         3.405635689         1.003050327
    -1.197609409        16.095665041         1.003050327
    20.790982720         3.405635689         1.003050327
    13.458513753        16.095665041         1.003050327
