Mn4 Fe4 Ni4 C48 S48
1.0
29.312246 0.000000 0.000000
-14.664938 25.380059 0.000000
0.000000 0.000000 16.048805
Fe Mn Fe Ni Fe Mn Fe Ni S C
1 2 1 2 1 2 1 2 48 48
direct
0.241222 0.467176 0.062500 Fe
0.241222 0.967176 0.062500 Mn
0.741221 0.467176 0.062500 Mn
0.741221 0.967176 0.062500 Fe
0.491486 0.216911 0.062500 Ni
0.491486 0.716911 0.062500 Ni
0.991485 0.216911 0.062500 Fe
0.991485 0.716911 0.062500 Mn
0.241749 0.217440 0.062500 Mn
0.241749 0.717440 0.062500 Fe
0.741749 0.217440 0.062500 Ni
0.741749 0.717440 0.062500 Ni
0.159855 0.408801 0.062500 S
0.159855 0.908801 0.062500 S
0.659855 0.408801 0.062500 S
0.659855 0.908801 0.062500 S
0.049661 0.298303 0.062500 S
0.049661 0.798303 0.062500 S
0.549661 0.298303 0.062500 S
0.549661 0.798303 0.062500 S
0.264529 0.409096 0.062500 S
0.264529 0.909096 0.062500 S
0.764529 0.409096 0.062500 S
0.764529 0.909096 0.062500 S
0.049799 0.193846 0.062500 S
0.049799 0.693846 0.062500 S
0.549800 0.193846 0.062500 S
0.549800 0.693846 0.062500 S
0.264818 0.298809 0.062500 S
0.264818 0.798809 0.062500 S
0.764818 0.298809 0.062500 S
0.764818 0.798809 0.062500 S
0.160376 0.194156 0.062500 S
0.160376 0.694156 0.062500 S
0.660375 0.194156 0.062500 S
0.660375 0.694156 0.062500 S
0.433111 0.135546 0.062500 S
0.433111 0.635545 0.062500 S
0.933111 0.135546 0.062500 S
0.933111 0.635545 0.062500 S
0.322612 0.025351 0.062500 S
0.322612 0.525351 0.062500 S
0.822612 0.025351 0.062500 S
0.822612 0.525351 0.062500 S
0.433405 0.240219 0.062500 S
0.433405 0.740219 0.062500 S
0.933406 0.240219 0.062500 S
0.933406 0.740219 0.062500 S
0.218156 0.025489 0.062500 S
0.218156 0.525490 0.062500 S
0.718156 0.025489 0.062500 S
0.718156 0.525490 0.062500 S
0.323119 0.240508 0.062500 S
0.323119 0.740508 0.062500 S
0.823119 0.240508 0.062500 S
0.823119 0.740508 0.062500 S
0.218466 0.136065 0.062500 S
0.218466 0.636065 0.062500 S
0.718466 0.136065 0.062500 S
0.718466 0.636065 0.062500 S
0.158273 0.349086 0.062500 C
0.158273 0.849086 0.062500 C
0.658273 0.349086 0.062500 C
0.658273 0.849086 0.062500 C
0.109493 0.300169 0.062500 C
0.109493 0.800169 0.062500 C
0.609493 0.300169 0.062500 C
0.609493 0.800169 0.062500 C
0.206582 0.349213 0.062500 C
0.206582 0.849213 0.062500 C
0.706582 0.349213 0.062500 C
0.706582 0.849213 0.062500 C
0.109567 0.251958 0.062500 C
0.109567 0.751958 0.062500 C
0.609567 0.251958 0.062500 C
0.609567 0.751958 0.062500 C
0.206701 0.300424 0.062500 C
0.206701 0.800424 0.062500 C
0.706701 0.300424 0.062500 C
0.706701 0.800424 0.062500 C
0.158496 0.252117 0.062500 C
0.158496 0.752117 0.062500 C
0.658495 0.252117 0.062500 C
0.658495 0.752117 0.062500 C
0.373395 0.133963 0.062500 C
0.373395 0.633963 0.062500 C
0.873395 0.133963 0.062500 C
0.873395 0.633963 0.062500 C
0.324478 0.085184 0.062500 C
0.324478 0.585184 0.062500 C
0.824478 0.085184 0.062500 C
0.824478 0.585184 0.062500 C
0.373522 0.182272 0.062500 C
0.373522 0.682272 0.062500 C
0.873523 0.182272 0.062500 C
0.873523 0.682272 0.062500 C
0.276267 0.085258 0.062500 C
0.276267 0.585258 0.062500 C
0.776268 0.085258 0.062500 C
0.776268 0.585258 0.062500 C
0.324733 0.182391 0.062500 C
0.324733 0.682392 0.062500 C
0.824733 0.182391 0.062500 C
0.824733 0.682392 0.062500 C
0.276426 0.134185 0.062500 C
0.276426 0.634185 0.062500 C
0.776426 0.134185 0.062500 C
0.776426 0.634185 0.062500 C
